
100
25482

329 497
984 357
960 424
919 143
790 358
876 111
1 622
627 417
248 419
731 898
433 157
561 530
543 610
577 632
828 761
982 356
346 926
807 668
890 75
393 606
124 517
498 936
765 726
525 674
185 679
706 709
325 448
887 492
169 532
594 21
386 511
985 423
139 428
881 564
418 652
372 391
209 575
495 236
930 976
1000 664
940 700
612 739
237 27
508 177
650 379
296 440
987 398
85 519
235 628
204 747
168 693
64 407
240 849
374 812
940 961
545 14
625 578
349 175
171 862
564 945
729 669
86 323
650 873
210 512
690 696
356 190
148 108
141 836
793 859
541 379
86 84
906 298
277 911
280 220
3 750
301 314
560 944
898 341
299 949
498 507
80 9
687 395
301 426
376 152
271 86
819 560
981 727
138 733
452 327
107 180
751 458
908 721
127 213
683 887
304 978
451 340
573 146
385 553
652 154
327 896
